p tw 2090 3227
1 2
1 127
3 4
3 128
5 6
5 129
7 8
7 130
9 10
9 97
9 98
11 12
11 98
11 99
13 14
13 131
15 16
15 106
15 107
17 18
17 107
17 108
19 20
19 132
21 22
21 133
23 24
23 134
25 26
25 121
25 122
27 28
27 122
27 123
29 30
29 135
31 32
31 136
33 34
33 109
33 110
35 36
35 110
35 111
37 38
37 137
39 40
39 138
41 42
41 139
43 44
43 140
45 46
45 100
45 101
47 48
47 101
47 102
49 50
49 141
51 52
51 142
53 54
53 112
53 113
55 56
55 113
55 114
57 58
57 103
57 104
59 60
59 104
59 105
61 62
61 143
63 64
63 144
65 66
65 118
65 119
67 68
67 119
67 120
69 70
69 145
71 72
71 146
73 74
73 147
75 76
75 115
75 116
77 78
77 116
77 117
79 80
79 148
81 82
81 149
83 84
83 150
85 86
85 151
87 88
87 152
89 90
89 124
89 125
91 92
91 125
91 126
93 94
93 153
95 96
95 154
97 98
97 155
97 156
98 99
99 185
100 101
100 189
101 102
102 159
102 160
103 104
103 191
104 105
105 192
106 107
106 174
106 175
107 108
108 186
109 110
109 188
110 111
111 161
111 162
112 113
112 190
113 114
114 168
114 169
115 116
115 183
115 184
116 117
117 194
118 119
118 176
118 177
119 120
120 193
121 122
121 187
122 123
123 179
123 180
124 125
124 195
125 126
126 196
127 209
127 210
128 210
128 211
129 173
129 174
130 314
130 315
131 262
131 263
132 156
132 157
133 244
133 245
134 391
134 392
135 216
135 217
136 158
136 159
137 204
137 205
138 167
138 168
139 268
139 269
140 180
140 181
141 198
141 199
142 162
142 163
143 182
143 183
144 320
144 321
145 164
145 165
146 308
146 309
147 350
147 351
148 177
148 178
149 253
149 254
150 165
150 166
151 304
151 305
152 170
152 171
153 171
153 172
154 219
154 220
155 156
155 225
156 157
157 207
157 208
158 159
158 229
159 160
160 197
160 198
161 162
161 203
161 204
162 163
163 234
164 165
164 213
164 214
165 166
166 240
167 168
167 231
168 169
169 236
170 171
170 241
171 172
172 218
172 219
173 174
173 224
174 175
175 227
176 177
176 238
177 178
178 222
178 223
179 180
179 215
179 216
180 181
181 232
182 183
182 201
182 202
183 184
184 239
185 226
186 206
186 207
187 228
188 230
189 233
190 235
191 237
192 200
192 201
193 212
193 213
194 221
194 222
195 242
196 243
197 198
197 282
198 199
199 250
199 251
200 201
200 285
201 202
202 248
202 249
203 204
203 245
203 246
204 205
205 279
206 207
206 259
206 260
207 208
208 277
209 210
209 274
210 211
211 265
211 266
212 213
212 286
213 214
214 257
214 258
215 216
215 263
215 264
216 217
217 278
218 219
218 290
219 220
220 291
221 222
221 271
221 272
222 223
223 288
224 275
225 266
225 267
226 340
226 341
227 276
228 364
228 365
229 260
229 261
230 352
230 353
231 280
232 281
233 247
233 248
234 283
235 256
235 257
236 284
237 269
237 270
238 251
238 252
239 287
240 289
241 272
241 273
242 367
242 368
243 254
243 255
244 245
244 293
244 294
245 246
246 328
247 248
247 329
248 249
249 319
249 320
250 251
250 298
250 299
251 252
252 334
253 254
253 311
253 312
254 255
255 337
256 257
256 331
257 258
258 307
258 308
259 260
259 326
260 261
261 296
261 297
262 263
262 325
263 264
264 327
265 266
265 323
266 267
267 324
268 269
268 316
268 317
269 270
270 332
271 272
271 336
272 273
273 305
273 306
274 322
275 313
275 314
276 409
276 410
277 292
277 293
278 295
278 296
279 301
279 302
280 302
280 303
281 317
281 318
282 330
283 299
283 300
284 451
284 452
285 333
286 335
287 418
287 419
288 310
288 311
289 403
289 404
290 338
291 339
292 293
292 374
293 294
294 341
294 342
295 296
295 343
295 344
296 297
297 376
298 299
298 353
298 354
299 300
300 380
301 302
301 355
301 356
302 303
303 378
304 305
304 387
305 306
306 388
307 308
307 384
308 309
309 385
310 311
310 386
311 312
312 359
312 360
313 314
313 371
314 315
315 346
315 347
316 317
316 365
316 366
317 318
318 379
319 320
319 382
320 321
321 361
321 362
322 460
322 461
323 370
324 372
325 373
326 347
326 348
327 375
328 377
329 344
329 345
330 442
330 443
331 356
331 357
332 381
333 349
333 350
334 383
335 358
335 359
336 362
336 363
337 389
338 552
338 553
339 368
339 369
340 341
340 421
341 342
342 390
342 391
343 344
343 425
344 345
345 415
345 416
346 347
346 393
346 394
347 348
348 422
349 350
349 430
350 351
351 417
351 418
352 353
352 397
352 398
353 354
354 429
355 356
355 426
356 357
357 400
357 401
358 359
358 432
359 360
360 402
360 403
361 362
361 411
361 412
362 363
363 435
364 365
364 424
365 366
366 428
367 368
367 406
367 407
368 369
369 438
370 599
370 600
371 420
372 394
372 395
373 408
373 409
374 423
375 512
375 513
376 396
376 397
377 500
377 501
378 427
379 414
379 415
380 399
380 400
381 493
381 494
382 431
383 412
383 413
384 433
385 434
386 436
387 437
388 405
388 406
389 515
389 516
390 391
390 473
391 392
392 463
392 464
393 394
393 461
393 462
394 395
395 469
396 397
396 475
397 398
398 440
398 441
399 400
399 445
399 446
400 401
401 479
402 403
402 483
403 404
404 484
405 406
405 485
406 407
407 455
407 456
408 409
408 471
409 410
410 448
410 449
411 412
411 443
411 444
412 413
413 480
414 415
414 466
414 467
415 416
416 477
417 418
417 481
418 419
419 457
419 458
420 554
420 555
421 470
422 472
423 439
423 440
424 474
425 449
425 450
426 464
426 465
427 548
427 549
428 476
429 478
430 467
430 468
431 563
431 564
432 446
432 447
433 545
433 546
434 452
434 453
435 482
436 454
436 455
437 458
437 459
438 486
439 440
439 520
440 441
441 499
441 500
442 443
442 491
442 492
443 444
444 528
445 446
445 527
446 447
447 509
447 510
448 449
448 496
448 497
449 450
450 523
451 452
451 503
451 504
452 453
453 529
454 455
454 531
455 456
456 514
456 515
457 458
457 505
457 506
458 459
459 534
460 461
460 517
461 462
462 518
463 464
463 522
464 465
465 525
466 467
466 526
467 468
468 494
468 495
469 487
469 488
470 488
470 489
471 519
472 497
472 498
473 521
474 511
474 512
475 524
476 657
476 658
477 490
477 491
478 587
478 588
479 502
479 503
480 508
480 509
481 530
482 506
482 507
483 532
484 533
485 535
486 608
486 609
487 488
487 536
487 537
488 489
489 568
490 491
490 575
491 492
492 540
492 541
493 494
493 577
494 495
495 578
496 497
496 555
496 556
497 498
498 569
499 500
499 573
500 501
501 542
501 543
502 503
502 576
503 504
504 549
504 550
505 506
505 564
505 565
506 507
507 582
508 509
508 557
508 558
509 510
510 580
511 512
511 571
512 513
513 560
513 561
514 515
514 584
515 516
516 585
517 566
518 567
519 651
519 652
520 537
520 538
521 633
521 634
522 570
523 572
524 539
524 540
525 574
526 561
526 562
527 543
527 544
528 579
529 581
530 739
530 740
531 558
531 559
532 642
532 643
533 546
533 547
534 583
535 551
535 552
536 537
536 614
537 538
538 596
538 597
539 540
539 618
540 541
541 586
541 587
542 543
542 592
542 593
543 544
544 623
545 546
545 602
545 603
546 547
547 629
548 549
548 620
549 550
550 625
551 552
551 630
552 553
553 607
553 608
554 555
554 613
555 556
556 616
557 558
557 627
558 559
559 611
559 612
560 561
560 604
560 605
561 562
562 621
563 564
563 590
563 591
564 565
565 628
566 598
566 599
567 703
567 704
568 615
569 595
569 596
570 780
570 781
571 617
572 605
572 606
573 619
574 593
574 594
575 622
576 624
577 626
578 589
578 590
579 709
579 710
580 601
580 602
581 697
581 698
582 610
582 611
583 693
583 694
584 631
585 632
586 587
586 671
587 588
588 639
588 640
589 590
589 674
590 591
591 637
591 638
592 593
592 634
592 635
593 594
594 668
595 596
595 648
595 649
596 597
597 666
598 599
598 663
599 600
600 654
600 655
601 602
601 675
602 603
603 646
603 647
604 605
604 652
604 653
605 606
606 667
607 608
607 679
608 609
609 680
610 611
610 660
610 661
611 612
612 677
613 664
614 655
614 656
615 729
615 730
616 665
617 753
617 754
618 649
618 650
619 741
619 742
620 669
621 670
622 636
622 637
623 672
624 645
624 646
625 673
626 658
626 659
627 640
627 641
628 676
629 678
630 661
630 662
631 756
631 757
632 643
632 644
633 634
633 682
633 683
634 635
635 717
636 637
636 718
637 638
638 708
638 709
639 640
639 687
639 688
640 641
641 723
642 643
642 700
642 701
643 644
644 726
645 646
645 720
646 647
647 696
647 697
648 649
648 715
649 650
650 685
650 686
651 652
651 714
652 653
653 716
654 655
654 712
655 656
656 713
657 658
657 705
657 706
658 659
659 721
660 661
660 725
661 662
662 694
662 695
663 711
664 702
664 703
665 798
665 799
666 681
666 682
667 684
667 685
668 690
668 691
669 691
669 692
670 706
670 707
671 719
672 688
672 689
673 840
673 841
674 722
675 724
676 807
676 808
677 699
677 700
678 792
678 793
679 727
680 728
681 682
681 763
682 683
683 730
683 731
684 685
684 732
684 733
685 686
686 765
687 688
687 742
687 743
688 689
689 769
690 691
690 744
690 745
691 692
692 767
693 694
693 776
694 695
695 777
696 697
696 773
697 698
698 774
699 700
699 775
700 701
701 748
701 749
702 703
702 760
703 704
704 735
704 736
705 706
705 754
705 755
706 707
707 768
708 709
708 771
709 710
710 750
710 751
711 849
711 850
712 759
713 761
714 762
715 736
715 737
716 764
717 766
718 733
718 734
719 831
719 832
720 745
720 746
721 770
722 738
722 739
723 772
724 747
724 748
725 751
725 752
726 778
727 941
727 942
728 757
728 758
729 730
729 810
730 731
731 779
731 780
732 733
732 814
733 734
734 804
734 805
735 736
735 782
735 783
736 737
737 811
738 739
738 819
739 740
740 806
740 807
741 742
741 786
741 787
742 743
743 818
744 745
744 815
745 746
746 789
746 790
747 748
747 821
748 749
749 791
749 792
750 751
750 800
750 801
751 752
752 824
753 754
753 813
754 755
755 817
756 757
756 795
756 796
757 758
758 827
759 988
759 989
760 809
761 783
761 784
762 797
762 798
763 812
764 901
764 902
765 785
765 786
766 889
766 890
767 816
768 803
768 804
769 788
769 789
770 882
770 883
771 820
772 801
772 802
773 822
774 823
775 825
776 826
777 794
777 795
778 904
778 905
779 780
779 862
780 781
781 852
781 853
782 783
782 850
782 851
783 784
784 858
785 786
785 864
786 787
787 829
787 830
788 789
788 834
788 835
789 790
790 868
791 792
791 872
792 793
793 873
794 795
794 874
795 796
796 844
796 845
797 798
797 860
798 799
799 837
799 838
800 801
800 832
800 833
801 802
802 869
803 804
803 855
803 856
804 805
805 866
806 807
806 870
807 808
808 846
808 847
809 943
809 944
810 859
811 861
812 828
812 829
813 863
814 838
814 839
815 853
815 854
816 937
816 938
817 865
818 867
819 856
819 857
820 952
820 953
821 835
821 836
822 934
822 935
823 841
823 842
824 871
825 843
825 844
826 847
826 848
827 875
828 829
828 909
829 830
830 888
830 889
831 832
831 880
831 881
832 833
833 917
834 835
834 916
835 836
836 898
836 899
837 838
837 885
837 886
838 839
839 912
840 841
840 892
840 893
841 842
842 918
843 844
843 920
844 845
845 903
845 904
846 847
846 894
846 895
847 848
848 923
849 850
849 906
850 851
851 907
852 853
852 911
853 854
854 914
855 856
855 915
856 857
857 883
857 884
858 876
858 877
859 877
859 878
860 908
861 886
861 887
862 910
863 900
863 901
864 913
865 1046
865 1047
866 879
866 880
867 976
867 977
868 891
868 892
869 897
869 898
870 919
871 895
871 896
872 921
873 922
874 924
875 997
875 998
876 877
876 925
876 926
877 878
878 957
879 880
879 964
880 881
881 929
881 930
882 883
882 966
883 884
884 967
885 886
885 944
885 945
886 887
887 958
888 889
888 962
889 890
890 931
890 932
891 892
891 965
892 893
893 938
893 939
894 895
894 953
894 954
895 896
896 971
897 898
897 946
897 947
898 899
899 969
900 901
900 960
901 902
902 949
902 950
903 904
903 973
904 905
905 974
906 955
907 956
908 1040
908 1041
909 926
909 927
910 1022
910 1023
911 959
912 961
913 928
913 929
914 963
915 950
915 951
916 932
916 933
917 968
918 970
919 1128
919 1129
920 947
920 948
921 1031
921 1032
922 935
922 936
923 972
924 940
924 941
925 926
925 1003
926 927
927 985
927 986
928 929
928 1007
929 930
930 975
930 976
931 932
931 981
931 982
932 933
933 1012
934 935
934 991
934 992
935 936
936 1018
937 938
937 1009
938 939
939 1014
940 941
940 1019
941 942
942 996
942 997
943 944
943 1002
944 945
945 1005
946 947
946 1016
947 948
948 1000
948 1001
949 950
949 993
949 994
950 951
951 1010
952 953
952 979
952 980
953 954
954 1017
955 987
955 988
956 1092
956 1093
957 1004
958 984
958 985
959 1169
959 1170
960 1006
961 994
961 995
962 1008
963 982
963 983
964 1011
965 1013
966 1015
967 978
967 979
968 1098
968 1099
969 990
969 991
970 1086
970 1087
971 999
971 1000
972 1082
972 1083
973 1020
974 1021
975 976
975 1060
976 977
977 1028
977 1029
978 979
978 1063
979 980
980 1026
980 1027
981 982
981 1023
981 1024
982 983
983 1057
984 985
984 1037
984 1038
985 986
986 1055
987 988
987 1052
988 989
989 1043
989 1044
990 991
990 1064
991 992
992 1035
992 1036
993 994
993 1041
993 1042
994 995
995 1056
996 997
996 1068
997 998
998 1069
999 1000
999 1049
999 1050
1000 1001
1001 1066
1002 1053
1003 1044
1003 1045
1004 1118
1004 1119
1005 1054
1006 1142
1006 1143
1007 1038
1007 1039
1008 1130
1008 1131
1009 1058
1010 1059
1011 1025
1011 1026
1012 1061
1013 1034
1013 1035
1014 1062
1015 1047
1015 1048
1016 1029
1016 1030
1017 1065
1018 1067
1019 1050
1019 1051
1020 1145
1020 1146
1021 1032
1021 1033
1022 1023
1022 1071
1022 1072
1023 1024
1024 1106
1025 1026
1025 1107
1026 1027
1027 1097
1027 1098
1028 1029
1028 1076
1028 1077
1029 1030
1030 1112
1031 1032
1031 1089
1031 1090
1032 1033
1033 1115
1034 1035
1034 1109
1035 1036
1036 1085
1036 1086
1037 1038
1037 1104
1038 1039
1039 1074
1039 1075
1040 1041
1040 1103
1041 1042
1042 1105
1043 1044
1043 1101
1044 1045
1045 1102
1046 1047
1046 1094
1046 1095
1047 1048
1048 1110
1049 1050
1049 1114
1050 1051
1051 1083
1051 1084
1052 1100
1053 1091
1053 1092
1054 1187
1054 1188
1055 1070
1055 1071
1056 1073
1056 1074
1057 1079
1057 1080
1058 1080
1058 1081
1059 1095
1059 1096
1060 1108
1061 1077
1061 1078
1062 1229
1062 1230
1063 1111
1064 1113
1065 1196
1065 1197
1066 1088
1066 1089
1067 1181
1067 1182
1068 1116
1069 1117
1070 1071
1070 1152
1071 1072
1072 1119
1072 1120
1073 1074
1073 1121
1073 1122
1074 1075
1075 1154
1076 1077
1076 1131
1076 1132
1077 1078
1078 1158
1079 1080
1079 1133
1079 1134
1080 1081
1081 1156
1082 1083
1082 1165
1083 1084
1084 1166
1085 1086
1085 1162
1086 1087
1087 1163
1088 1089
1088 1164
1089 1090
1090 1137
1090 1138
1091 1092
1091 1149
1092 1093
1093 1124
1093 1125
1094 1095
1094 1143
1094 1144
1095 1096
1096 1157
1097 1098
1097 1160
1098 1099
1099 1139
1099 1140
1100 1238
1100 1239
1101 1148
1102 1150
1103 1151
1104 1125
1104 1126
1105 1153
1106 1155
1107 1122
1107 1123
1108 1220
1108 1221
1109 1134
1109 1135
1110 1159
1111 1127
1111 1128
1112 1161
1113 1136
1113 1137
1114 1140
1114 1141
1115 1167
1116 1330
1116 1331
1117 1146
1117 1147
1118 1119
1118 1199
1119 1120
1120 1168
1120 1169
1121 1122
1121 1203
1122 1123
1123 1193
1123 1194
1124 1125
1124 1171
1124 1172
1125 1126
1126 1200
1127 1128
1127 1208
1128 1129
1129 1195
1129 1196
1130 1131
1130 1175
1130 1176
1131 1132
1132 1207
1133 1134
1133 1204
1134 1135
1135 1178
1135 1179
1136 1137
1136 1210
1137 1138
1138 1180
1138 1181
1139 1140
1139 1189
1139 1190
1140 1141
1141 1213
1142 1143
1142 1202
1143 1144
1144 1206
1145 1146
1145 1184
1145 1185
1146 1147
1147 1216
1148 1377
1148 1378
1149 1198
1150 1172
1150 1173
1151 1186
1151 1187
1152 1201
1153 1290
1153 1291
1154 1174
1154 1175
1155 1278
1155 1279
1156 1205
1157 1192
1157 1193
1158 1177
1158 1178
1159 1271
1159 1272
1160 1209
1161 1190
1161 1191
1162 1211
1163 1212
1164 1214
1165 1215
1166 1183
1166 1184
1167 1293
1167 1294
1168 1169
1168 1251
1169 1170
1170 1241
1170 1242
1171 1172
1171 1239
1171 1240
1172 1173
1173 1247
1174 1175
1174 1253
1175 1176
1176 1218
1176 1219
1177 1178
1177 1223
1177 1224
1178 1179
1179 1257
1180 1181
1180 1261
1181 1182
1182 1262
1183 1184
1183 1263
1184 1185
1185 1233
1185 1234
1186 1187
1186 1249
1187 1188
1188 1226
1188 1227
1189 1190
1189 1221
1189 1222
1190 1191
1191 1258
1192 1193
1192 1244
1192 1245
1193 1194
1194 1255
1195 1196
1195 1259
1196 1197
1197 1235
1197 1236
1198 1332
1198 1333
1199 1248
1200 1250
1201 1217
1201 1218
1202 1252
1203 1227
1203 1228
1204 1242
1204 1243
1205 1326
1205 1327
1206 1254
1207 1256
1208 1245
1208 1246
1209 1341
1209 1342
1210 1224
1210 1225
1211 1323
1211 1324
1212 1230
1212 1231
1213 1260
1214 1232
1214 1233
1215 1236
1215 1237
1216 1264
1217 1218
1217 1298
1218 1219
1219 1277
1219 1278
1220 1221
1220 1269
1220 1270
1221 1222
1222 1306
1223 1224
1223 1305
1224 1225
1225 1287
1225 1288
1226 1227
1226 1274
1226 1275
1227 1228
1228 1301
1229 1230
1229 1281
1229 1282
1230 1231
1231 1307
1232 1233
1232 1309
1233 1234
1234 1292
1234 1293
1235 1236
1235 1283
1235 1284
1236 1237
1237 1312
1238 1239
1238 1295
1239 1240
1240 1296
1241 1242
1241 1300
1242 1243
1243 1303
1244 1245
1244 1304
1245 1246
1246 1272
1246 1273
1247 1265
1247 1266
1248 1266
1248 1267
1249 1297
1250 1275
1250 1276
1251 1299
1252 1289
1252 1290
1253 1302
1254 1435
1254 1436
1255 1268
1255 1269
1256 1365
1256 1366
1257 1280
1257 1281
1258 1286
1258 1287
1259 1308
1260 1284
1260 1285
1261 1310
1262 1311
1263 1313
1264 1386
1264 1387
1265 1266
1265 1314
1265 1315
1266 1267
1267 1346
1268 1269
1268 1353
1269 1270
1270 1318
1270 1319
1271 1272
1271 1355
1272 1273
1273 1356
1274 1275
1274 1333
1274 1334
1275 1276
1276 1347
1277 1278
1277 1351
1278 1279
1279 1320
1279 1321
1280 1281
1280 1354
1281 1282
1282 1327
1282 1328
1283 1284
1283 1342
1283 1343
1284 1285
1285 1360
1286 1287
1286 1335
1286 1336
1287 1288
1288 1358
1289 1290
1289 1349
1290 1291
1291 1338
1291 1339
1292 1293
1292 1362
1293 1294
1294 1363
1295 1344
1296 1345
1297 1429
1297 1430
1298 1315
1298 1316
1299 1411
1299 1412
1300 1348
1301 1350
1302 1317
1302 1318
1303 1352
1304 1339
1304 1340
1305 1321
1305 1322
1306 1357
1307 1359
1308 1517
1308 1518
1309 1336
1309 1337
1310 1420
1310 1421
1311 1324
1311 1325
1312 1361
1313 1329
1313 1330
1314 1315
1314 1392
1315 1316
1316 1374
1316 1375
1317 1318
1317 1396
1318 1319
1319 1364
1319 1365
1320 1321
1320 1370
1320 1371
1321 1322
1322 1401
1323 1324
1323 1380
1323 1381
1324 1325
1325 1407
1326 1327
1326 1398
1327 1328
1328 1403
1329 1330
1329 1408
1330 1331
1331 1385
1331 1386
1332 1333
1332 1391
1333 1334
1334 1394
1335 1336
1335 1405
1336 1337
1337 1389
1337 1390
1338 1339
1338 1382
1338 1383
1339 1340
1340 1399
1341 1342
1341 1368
1341 1369
1342 1343
1343 1406
1344 1376
1344 1377
1345 1481
1345 1482
1346 1393
1347 1373
1347 1374
1348 1558
1348 1559
1349 1395
1350 1383
1350 1384
1351 1397
1352 1371
1352 1372
1353 1400
1354 1402
1355 1404
1356 1367
1356 1368
1357 1487
1357 1488
1358 1379
1358 1380
1359 1475
1359 1476
1360 1388
1360 1389
1361 1471
1361 1472
1362 1409
1363 1410
1364 1365
1364 1449
1365 1366
1366 1417
1366 1418
1367 1368
1367 1452
1368 1369
1369 1415
1369 1416
1370 1371
1370 1412
1370 1413
1371 1372
1372 1446
1373 1374
1373 1426
1373 1427
1374 1375
1375 1444
1376 1377
1376 1441
1377 1378
1378 1432
1378 1433
1379 1380
1379 1453
1380 1381
1381 1424
1381 1425
1382 1383
1382 1430
1382 1431
1383 1384
1384 1445
1385 1386
1385 1457
1386 1387
1387 1458
1388 1389
1388 1438
1388 1439
1389 1390
1390 1455
1391 1442
1392 1433
1392 1434
1393 1507
1393 1508
1394 1443
1395 1531
1395 1532
1396 1427
1396 1428
1397 1519
1397 1520
1398 1447
1399 1448
1400 1414
1400 1415
1401 1450
1402 1423
1402 1424
1403 1451
1404 1436
1404 1437
1405 1418
1405 1419
1406 1454
1407 1456
1408 1439
1408 1440
1409 1534
1409 1535
1410 1421
1410 1422
1411 1412
1411 1460
1411 1461
1412 1413
1413 1495
1414 1415
1414 1496
1415 1416
1416 1486
1416 1487
1417 1418
1417 1465
1417 1466
1418 1419
1419 1501
1420 1421
1420 1478
1420 1479
1421 1422
1422 1504
1423 1424
1423 1498
1424 1425
1425 1474
1425 1475
1426 1427
1426 1493
1427 1428
1428 1463
1428 1464
1429 1430
1429 1492
1430 1431
1431 1494
1432 1433
1432 1490
1433 1434
1434 1491
1435 1436
1435 1483
1435 1484
1436 1437
1437 1499
1438 1439
1438 1503
1439 1440
1440 1472
1440 1473
1441 1489
1442 1480
1442 1481
1443 1576
1443 1577
1444 1459
1444 1460
1445 1462
1445 1463
1446 1468
1446 1469
1447 1469
1447 1470
1448 1484
1448 1485
1449 1497
1450 1466
1450 1467
1451 1618
1451 1619
1452 1500
1453 1502
1454 1585
1454 1586
1455 1477
1455 1478
1456 1570
1456 1571
1457 1505
1458 1506
1459 1460
1459 1541
1460 1461
1461 1508
1461 1509
1462 1463
1462 1510
1462 1511
1463 1464
1464 1543
1465 1466
1465 1520
1465 1521
1466 1467
1467 1547
1468 1469
1468 1522
1468 1523
1469 1470
1470 1545
1471 1472
1471 1554
1472 1473
1473 1555
1474 1475
1474 1551
1475 1476
1476 1552
1477 1478
1477 1553
1478 1479
1479 1526
1479 1527
1480 1481
1480 1538
1481 1482
1482 1513
1482 1514
1483 1484
1483 1532
1483 1533
1484 1485
1485 1546
1486 1487
1486 1549
1487 1488
1488 1528
1488 1529
1489 1627
1489 1628
1490 1537
1491 1539
1492 1540
1493 1514
1493 1515
1494 1542
1495 1544
1496 1511
1496 1512
1497 1609
1497 1610
1498 1523
1498 1524
1499 1548
1500 1516
1500 1517
1501 1550
1502 1525
1502 1526
1503 1529
1503 1530
1504 1556
1505 1719
1505 1720
1506 1535
1506 1536
1507 1508
1507 1588
1508 1509
1509 1557
1509 1558
1510 1511
1510 1592
1511 1512
1512 1582
1512 1583
1513 1514
1513 1560
1513 1561
1514 1515
1515 1589
1516 1517
1516 1597
1517 1518
1518 1584
1518 1585
1519 1520
1519 1564
1519 1565
1520 1521
1521 1596
1522 1523
1522 1593
1523 1524
1524 1567
1524 1568
1525 1526
1525 1599
1526 1527
1527 1569
1527 1570
1528 1529
1528 1578
1528 1579
1529 1530
1530 1602
1531 1532
1531 1591
1532 1533
1533 1595
1534 1535
1534 1573
1534 1574
1535 1536
1536 1605
1537 1766
1537 1767
1538 1587
1539 1561
1539 1562
1540 1575
1540 1576
1541 1590
1542 1679
1542 1680
1543 1563
1543 1564
1544 1667
1544 1668
1545 1594
1546 1581
1546 1582
1547 1566
1547 1567
1548 1660
1548 1661
1549 1598
1550 1579
1550 1580
1551 1600
1552 1601
1553 1603
1554 1604
1555 1572
1555 1573
1556 1682
1556 1683
1557 1558
1557 1640
1558 1559
1559 1630
1559 1631
1560 1561
1560 1628
1560 1629
1561 1562
1562 1636
1563 1564
1563 1642
1564 1565
1565 1607
1565 1608
1566 1567
1566 1612
1566 1613
1567 1568
1568 1646
1569 1570
1569 1650
1570 1571
1571 1651
1572 1573
1572 1652
1573 1574
1574 1622
1574 1623
1575 1576
1575 1638
1576 1577
1577 1615
1577 1616
1578 1579
1578 1610
1578 1611
1579 1580
1580 1647
1581 1582
1581 1633
1581 1634
1582 1583
1583 1644
1584 1585
1584 1648
1585 1586
1586 1624
1586 1625
1587 1721
1587 1722
1588 1637
1589 1639
1590 1606
1590 1607
1591 1641
1592 1616
1592 1617
1593 1631
1593 1632
1594 1715
1594 1716
1595 1643
1596 1645
1597 1634
1597 1635
1598 1730
1598 1731
1599 1613
1599 1614
1600 1712
1600 1713
1601 1619
1601 1620
1602 1649
1603 1621
1603 1622
1604 1625
1604 1626
1605 1653
1606 1607
1606 1687
1607 1608
1608 1666
1608 1667
1609 1610
1609 1658
1609 1659
1610 1611
1611 1695
1612 1613
1612 1694
1613 1614
1614 1676
1614 1677
1615 1616
1615 1663
1615 1664
1616 1617
1617 1690
1618 1619
1618 1670
1618 1671
1619 1620
1620 1696
1621 1622
1621 1698
1622 1623
1623 1681
1623 1682
1624 1625
1624 1672
1624 1673
1625 1626
1626 1701
1627 1628
1627 1684
1628 1629
1629 1685
1630 1631
1630 1689
1631 1632
1632 1692
1633 1634
1633 1693
1634 1635
1635 1661
1635 1662
1636 1654
1636 1655
1637 1655
1637 1656
1638 1686
1639 1664
1639 1665
1640 1688
1641 1678
1641 1679
1642 1691
1643 1824
1643 1825
1644 1657
1644 1658
1645 1754
1645 1755
1646 1669
1646 1670
1647 1675
1647 1676
1648 1697
1649 1673
1649 1674
1650 1699
1651 1700
1652 1702
1653 1775
1653 1776
1654 1655
1654 1703
1654 1704
1655 1656
1656 1735
1657 1658
1657 1742
1658 1659
1659 1707
1659 1708
1660 1661
1660 1744
1661 1662
1662 1745
1663 1664
1663 1722
1663 1723
1664 1665
1665 1736
1666 1667
1666 1740
1667 1668
1668 1709
1668 1710
1669 1670
1669 1743
1670 1671
1671 1716
1671 1717
1672 1673
1672 1731
1672 1732
1673 1674
1674 1749
1675 1676
1675 1724
1675 1725
1676 1677
1677 1747
1678 1679
1678 1738
1679 1680
1680 1727
1680 1728
1681 1682
1681 1751
1682 1683
1683 1752
1684 1733
1685 1734
1686 1818
1686 1819
1687 1704
1687 1705
1688 1800
1688 1801
1689 1737
1690 1739
1691 1706
1691 1707
1692 1741
1693 1728
1693 1729
1694 1710
1694 1711
1695 1746
1696 1748
1697 1906
1697 1907
1698 1725
1698 1726
1699 1809
1699 1810
1700 1713
1700 1714
1701 1750
1702 1718
1702 1719
1703 1704
1703 1781
1704 1705
1705 1763
1705 1764
1706 1707
1706 1785
1707 1708
1708 1753
1708 1754
1709 1710
1709 1759
1709 1760
1710 1711
1711 1790
1712 1713
1712 1769
1712 1770
1713 1714
1714 1796
1715 1716
1715 1787
1716 1717
1717 1792
1718 1719
1718 1797
1719 1720
1720 1774
1720 1775
1721 1722
1721 1780
1722 1723
1723 1783
1724 1725
1724 1794
1725 1726
1726 1778
1726 1779
1727 1728
1727 1771
1727 1772
1728 1729
1729 1788
1730 1731
1730 1757
1730 1758
1731 1732
1732 1795
1733 1765
1733 1766
1734 1870
1734 1871
1735 1782
1736 1762
1736 1763
1737 1947
1737 1948
1738 1784
1739 1772
1739 1773
1740 1786
1741 1760
1741 1761
1742 1789
1743 1791
1744 1793
1745 1756
1745 1757
1746 1876
1746 1877
1747 1768
1747 1769
1748 1864
1748 1865
1749 1777
1749 1778
1750 1860
1750 1861
1751 1798
1752 1799
1753 1754
1753 1838
1754 1755
1755 1806
1755 1807
1756 1757
1756 1841
1757 1758
1758 1804
1758 1805
1759 1760
1759 1801
1759 1802
1760 1761
1761 1835
1762 1763
1762 1815
1762 1816
1763 1764
1764 1833
1765 1766
1765 1830
1766 1767
1767 1821
1767 1822
1768 1769
1768 1842
1769 1770
1770 1813
1770 1814
1771 1772
1771 1819
1771 1820
1772 1773
1773 1834
1774 1775
1774 1846
1775 1776
1776 1847
1777 1778
1777 1827
1777 1828
1778 1779
1779 1844
1780 1831
1781 1822
1781 1823
1782 1896
1782 1897
1783 1832
1784 1920
1784 1921
1785 1816
1785 1817
1786 1908
1786 1909
1787 1836
1788 1837
1789 1803
1789 1804
1790 1839
1791 1812
1791 1813
1792 1840
1793 1825
1793 1826
1794 1807
1794 1808
1795 1843
1796 1845
1797 1828
1797 1829
1798 1923
1798 1924
1799 1810
1799 1811
1800 1801
1800 1849
1800 1850
1801 1802
1802 1884
1803 1804
1803 1885
1804 1805
1805 1875
1805 1876
1806 1807
1806 1854
1806 1855
1807 1808
1808 1890
1809 1810
1809 1867
1809 1868
1810 1811
1811 1893
1812 1813
1812 1887
1813 1814
1814 1863
1814 1864
1815 1816
1815 1882
1816 1817
1817 1852
1817 1853
1818 1819
1818 1881
1819 1820
1820 1883
1821 1822
1821 1879
1822 1823
1823 1880
1824 1825
1824 1872
1824 1873
1825 1826
1826 1888
1827 1828
1827 1892
1828 1829
1829 1861
1829 1862
1830 1878
1831 1869
1831 1870
1832 1965
1832 1966
1833 1848
1833 1849
1834 1851
1834 1852
1835 1857
1835 1858
1836 1858
1836 1859
1837 1873
1837 1874
1838 1886
1839 1855
1839 1856
1840 2007
1840 2008
1841 1889
1842 1891
1843 1974
1843 1975
1844 1866
1844 1867
1845 1959
1845 1960
1846 1894
1847 1895
1848 1849
1848 1930
1849 1850
1850 1897
1850 1898
1851 1852
1851 1899
1851 1900
1852 1853
1853 1932
1854 1855
1854 1909
1854 1910
1855 1856
1856 1936
1857 1858
1857 1911
1857 1912
1858 1859
1859 1934
1860 1861
1860 1943
1861 1862
1862 1944
1863 1864
1863 1940
1864 1865
1865 1941
1866 1867
1866 1942
1867 1868
1868 1915
1868 1916
1869 1870
1869 1927
1870 1871
1871 1902
1871 1903
1872 1873
1872 1921
1872 1922
1873 1874
1874 1935
1875 1876
1875 1938
1876 1877
1877 1917
1877 1918
1878 2016
1878 2017
1879 1926
1880 1928
1881 1929
1882 1903
1882 1904
1883 1931
1884 1933
1885 1900
1885 1901
1886 1998
1886 1999
1887 1912
1887 1913
1888 1937
1889 1905
1889 1906
1890 1939
1891 1914
1891 1915
1892 1918
1892 1919
1893 1945
1894 2089
1895 1924
1895 1925
1896 1897
1896 1977
1897 1898
1898 1946
1898 1947
1899 1900
1899 1981
1900 1901
1901 1971
1901 1972
1902 1903
1902 1949
1902 1950
1903 1904
1904 1978
1905 1906
1905 1986
1906 1907
1907 1973
1907 1974
1908 1909
1908 1953
1908 1954
1909 1910
1910 1985
1911 1912
1911 1982
1912 1913
1913 1956
1913 1957
1914 1915
1914 1988
1915 1916
1916 1958
1916 1959
1917 1918
1917 1967
1917 1968
1918 1919
1919 1991
1920 1921
1920 1980
1921 1922
1922 1984
1923 1924
1923 1962
1923 1963
1924 1925
1925 1994
1926 2044
1927 1976
1928 1950
1928 1951
1929 1964
1929 1965
1930 1979
1931 2056
1932 1952
1932 1953
1933 2060
1934 1983
1935 1970
1935 1971
1936 1955
1936 1956
1937 2071
1938 1987
1939 1968
1939 1969
1940 1989
1941 1990
1942 1992
1943 1993
1944 1961
1944 1962
1945 2088
1946 1947
1946 2029
1947 1948
1948 2019
1948 2020
1949 1950
1949 2017
1949 2018
1950 1951
1951 2025
1952 1953
1952 2031
1953 1954
1954 1996
1954 1997
1955 1956
1955 2001
1955 2002
1956 1957
1957 2035
1958 1959
1958 2039
1959 1960
1960 2040
1961 1962
1961 2041
1962 1963
1963 2011
1963 2012
1964 1965
1964 2027
1965 1966
1966 2004
1966 2005
1967 1968
1967 1999
1967 2000
1968 1969
1969 2036
1970 1971
1970 2022
1970 2023
1971 1972
1972 2033
1973 1974
1973 2037
1974 1975
1975 2013
1975 2014
1976 2045
1977 2026
1978 2028
1979 1995
1979 1996
1980 2030
1981 2005
1981 2006
1982 2020
1982 2021
1983 2062
1984 2032
1985 2034
1986 2023
1986 2024
1987 2073
1988 2002
1988 2003
1989 2077
1990 2008
1990 2009
1991 2038
1992 2010
1992 2011
1993 2014
1993 2015
1994 2042
1995 1996
1995 2052
1996 1997
1997 2059
1998 1999
1998 2066
1999 2000
2000 2074
2001 2002
2001 2068
2002 2003
2003 2076
2004 2005
2004 2050
2005 2006
2006 2057
2007 2008
2007 2070
2008 2009
2009 2078
2010 2011
2010 2082
2011 2012
2012 2087
2013 2014
2013 2080
2014 2015
2015 2085
2016 2017
2016 2043
2017 2018
2018 2046
2019 2020
2019 2054
2020 2021
2021 2061
2022 2023
2022 2064
2023 2024
2024 2072
2025 2047
2026 2048
2027 2049
2028 2051
2029 2053
2030 2055
2031 2058
2032 2063
2033 2065
2034 2067
2035 2069
2036 2075
2037 2079
2038 2081
2039 2083
2040 2084
2041 2086
2042 2090
